p cnf 12 43
1 4 7 10 0
2 5 8 11 0
3 6 9 12 0
1 2 3 0
-1 -2 0
-1 -3 0
-2 -3 0
1 2 3 0
1 2 6 0
1 5 3 0
1 5 6 0
4 2 3 0
4 2 6 0
4 5 3 0
4 5 6 0
1 2 3 0
1 2 9 0
1 8 3 0
1 8 9 0
7 2 3 0
7 2 9 0
7 8 3 0
7 8 9 0
4 5 6 0
-4 -5 0
-4 -6 0
-5 -6 0
4 5 6 0
4 5 12 0
4 11 6 0
4 11 12 0
10 5 6 0
10 5 12 0
10 11 6 0
10 11 12 0
7 8 9 0
-7 -8 0
-7 -9 0
-8 -9 0
10 11 12 0
-10 -11 0
-10 -12 0
-11 -12 0
